15
2 0 3
4 0 7
4 2 3
4 3 1
5 1 7
5 2 7
5 4 3
6 1 7
7 0 4
7 1 9
7 2 7
7 3 4
7 5 9
8 1 2
8 2 10
8 4 4
8 5 5
8 6 8
9 3 6
9 6 5
9 7 1
9 8 2
10 4 9
10 7 3
11 1 6
11 2 6
11 3 9
11 4 10
11 10 10
12 1 2
12 2 10
12 3 9
12 4 1
12 6 4
12 7 2
12 8 5
12 10 8
12 11 10
13 0 5
13 4 4
13 5 5
13 6 7
13 8 6
13 9 2
13 10 2
13 12 5
14 0 8
14 3 8
14 4 10
14 5 10
14 6 8
14 8 9
14 11 6
14 13 9
